Set parameter Username
Academic license - for non-commercial use only - expires 2024-02-18
Gurobi Optimizer version 10.0.1 build v10.0.1rc0 (linux64)

CPU model: Intel(R) Xeon(R) CPU E5-2650 0 @ 2.00GHz, instruction set [SSE2|AVX]
Thread count: 16 physical cores, 32 logical processors, using up to 32 threads

Optimize a model with 34131 rows, 11511 columns and 106281 nonzeros
Model fingerprint: 0x40ca4ffb
Variable types: 0 continuous, 11511 integer (11511 binary)
Coefficient statistics:
  Matrix range     [1e+00, 2e+00]
  Objective range  [0e+00, 0e+00]
  Bounds range     [1e+00, 1e+00]
  RHS range        [1e+00, 2e+00]
Presolve removed 34095 rows and 11268 columns
Presolve time: 0.40s
Presolved: 36 rows, 243 columns, 486 nonzeros
Variable types: 0 continuous, 243 integer (243 binary)
Found heuristic solution: objective 0.0000000

Explored 0 nodes (0 simplex iterations) in 0.43 seconds (0.25 work units)
Thread count was 32 (of 32 available processors)

Solution count 1: 0 

Optimal solution found (tolerance 1.00e-04)
Best objective 0.000000000000e+00, best bound 0.000000000000e+00, gap 0.0000%
